\* minimize *\
Minimize
OBJ: z0 + z1 + z2
Subject To
_C1: - w0 + z0 + 2 z1 + 3 z2 = 0
_C10: w0 + w1 + w2 = 1
_C2: - w1 + 0.5 z0 + z1 + 2 z2 = 0
_C3: - w2 + 0.333333333333 z0 + 0.5 z1 + z2 = 0
_C4: - 0.333333333333 w0 + z0 <= 0
_C5: - 0.333333333333 w1 + z1 <= 0
_C6: - 0.333333333333 w2 + z2 <= 0
_C7: - 0.324324324324 w0 + z0 >= 0
_C8: - 0.324324324324 w1 + z1 >= 0
_C9: - 0.324324324324 w2 + z2 >= 0
Bounds
 0 <= w0
 0 <= w1
 0 <= w2
 0 <= z0
 0 <= z1
 0 <= z2
Generals
w0
w1
w2
z0
z1
z2
End
